(declare-const X String)
; /filename=[^\n]*\x2emid/i
(assert (not (str.in_re X (re.++ (str.to_re "/filename=") (re.* (re.comp (str.to_re "\u{a}"))) (str.to_re ".mid/i\u{a}")))))
; forum=\s+\x2Ftoolbar\x2Fico\x2F
(assert (not (str.in_re X (re.++ (str.to_re "forum=") (re.+ (re.union (str.to_re " ") (str.to_re "\u{9}") (str.to_re "\u{a}") (str.to_re "\u{c}") (str.to_re "\u{d}"))) (str.to_re "/toolbar/ico/\u{a}")))))
(check-sat)

(exit)
